33 132 34 
116 130 45 
88 64 45 
124 122 130 
130 115 99 
60 130 63 
30 86 44 
119 108 3 
94 78 138 
90 36 138 
83 57 137 
139 80 79 
11 72 104 
8 23 48 
24 54 110 
30 76 47 
35 39 97 
135 131 15 
96 45 149 
7 41 105 
10 125 24 
17 81 132 
